c uprop, v00.0, 
c reading from data/prog617.c.cnf
c done reading: 0.002648
p cnf 165 738
-72 -90 0
72 90 0
-67 90 0
67 -90 0
72 -84 0
-82 -84 0
-72 82 84 0
-72 -77 82 0
72 -77 -82 0
72 77 82 0
-72 77 -82 0
-73 84 0
-70 -73 0
70 73 -84 0
-69 70 -84 0
-69 -70 84 0
69 70 84 0
69 -70 -84 0
-68 73 0
-65 -68 0
65 68 -73 0
-63 65 -73 0
-63 -65 73 0
63 65 73 0
63 -65 -73 0
68 -88 0
-86 -88 0
-68 86 88 0
-68 86 -92 0
68 -86 -92 0
68 86 92 0
-68 -86 92 0
88 -93 0
-79 -93 0
79 -88 93 0
79 -88 -94 0
-79 88 -94 0
79 88 94 0
-79 -88 94 0
93 -95 0
-75 -95 0
75 -93 95 0
75 -93 -96 0
-75 93 -96 0
75 93 96 0
-75 -93 96 0
65 -97 0
-65 97 0
-86 -90 98 0
86 90 -98 0
86 -98 0
90 -98 0
86 -98 -99 0
90 -98 -99 0
-98 -99 0
-86 98 99 0
-90 98 99 0
86 90 -99 0
-79 -82 100 0
-79 -98 100 0
-82 -98 100 0
79 82 -100 0
79 98 -100 0
82 98 -100 0
79 -100 -101 0
82 -100 -101 0
98 -100 -101 0
-79 100 101 0
-82 100 101 0
-98 100 101 0
-79 -82 -98 101 0
79 82 98 -101 0
-70 -75 102 0
-75 -100 102 0
-70 -100 102 0
70 75 -102 0
75 100 -102 0
70 100 -102 0
75 -102 -103 0
70 -102 -103 0
100 -102 -103 0
-75 102 103 0
-70 102 103 0
-100 102 103 0
-70 -75 -100 103 0
70 75 100 -103 0
65 -104 0
102 -104 0
-65 -102 104 0
-62 -65 -102 0
-62 65 102 0
62 -65 102 0
62 65 -102 0
-61 86 0
-61 104 0
61 -86 -104 0
-60 -86 -104 0
-60 86 104 0
60 -86 104 0
60 86 -104 0
-59 79 0
-59 61 0
59 -61 -79 0
-58 -61 -79 0
-58 61 79 0
58 61 -79 0
58 -61 79 0
75 -89 0
59 -89 0
-59 -75 89 0
-59 -75 -81 0
59 75 -81 0
59 -75 81 0
-59 75 81 0
-64 99 0
64 -99 0
85 -90 -101 0
-85 90 101 0
-85 101 0
-85 90 0
-78 -85 101 0
-78 -85 90 0
-78 -85 0
78 85 -101 0
78 85 -90 0
-78 90 101 0
74 -82 -103 0
74 -85 -103 0
74 -82 -85 0
-74 82 103 0
-74 85 103 0
-74 82 85 0
-57 -74 103 0
-57 -74 82 0
-57 -74 85 0
57 74 -103 0
57 74 -82 0
57 74 -85 0
57 -82 -85 -103 0
-57 82 85 103 0
56 -62 -70 0
56 -62 -74 0
56 -70 -74 0
-56 62 70 0
-56 62 74 0
-56 70 74 0
-55 -56 62 0
-55 -56 70 0
-55 -56 74 0
55 56 -62 0
55 56 -70 0
55 56 -74 0
55 -62 -70 -74 0
-55 62 70 74 0
54 -60 -65 0
54 -56 -60 0
54 -56 -65 0
-54 60 65 0
-54 56 60 0
-54 56 65 0
-53 -54 60 0
-53 -54 65 0
-53 -54 56 0
53 54 -60 0
53 54 -65 0
53 54 -56 0
53 -56 -60 -65 0
-53 56 60 65 0
52 -58 -86 0
52 -54 -58 0
52 -54 -86 0
-52 58 86 0
-52 54 58 0
-52 54 86 0
-51 -52 58 0
-51 -52 86 0
-51 -52 54 0
51 52 -58 0
51 52 -86 0
51 52 -54 0
51 -54 -58 -86 0
-51 54 58 86 0
50 -79 -81 0
50 -52 -81 0
50 -52 -79 0
-50 79 81 0
-50 52 81 0
-50 52 79 0
-49 -50 81 0
-49 -50 79 0
-49 -50 52 0
49 50 -81 0
49 50 -79 0
49 50 -52 0
49 -52 -79 -81 0
-49 52 79 81 0
48 -75 -89 0
48 -50 -89 0
48 -50 -75 0
-48 75 89 0
-48 50 89 0
-48 50 75 0
-47 -48 89 0
-47 -48 75 0
-47 -48 50 0
47 48 -89 0
47 48 -75 0
47 48 -50 0
47 -50 -75 -89 0
-47 50 75 89 0
-46 -90 0
46 90 0
-45 90 0
45 -90 0
-44 46 0
-44 -82 0
44 -46 82 0
-43 -46 82 0
-43 46 -82 0
43 46 82 0
43 -46 -82 0
-42 44 0
-42 -70 0
42 -44 70 0
-41 -44 70 0
-41 44 -70 0
41 44 70 0
41 -44 -70 0
-40 42 0
-40 -97 0
40 -42 97 0
-39 -42 97 0
-39 42 -97 0
39 42 97 0
39 -42 -97 0
40 -105 0
-64 -105 0
-40 64 105 0
-40 64 -106 0
40 -64 -106 0
40 64 106 0
-40 -64 106 0
105 -107 0
-78 -107 0
78 -105 107 0
78 -105 -108 0
-78 105 -108 0
78 105 108 0
-78 -105 108 0
107 -109 0
-57 -109 0
57 -107 109 0
57 -107 -110 0
-57 107 -110 0
57 107 110 0
-57 -107 110 0
109 -111 0
-55 -111 0
55 -109 111 0
55 -109 -112 0
-55 109 -112 0
55 109 112 0
-55 -109 112 0
111 -113 0
-53 -113 0
53 -111 113 0
53 -111 -114 0
-53 111 -114 0
53 111 114 0
-53 -111 114 0
113 -115 0
-51 -115 0
51 -113 115 0
51 -113 -116 0
-51 113 -116 0
51 113 116 0
-51 -113 116 0
115 -117 0
-49 -117 0
49 -115 117 0
49 -115 -118 0
-49 115 -118 0
49 115 118 0
-49 -115 118 0
117 -119 0
-47 -119 0
47 -117 119 0
47 -117 -120 0
-47 117 -120 0
47 117 120 0
-47 -117 120 0
119 -121 0
-48 -121 0
48 -119 121 0
48 -119 -122 0
-48 119 -122 0
48 119 122 0
-48 -119 122 0
-123 -125 0
-125 -126 0
123 125 126 0
123 126 -128 0
-123 -126 -128 0
-123 126 128 0
123 -126 128 0
125 -129 0
-129 -130 0
-125 129 130 0
-125 130 -132 0
125 -130 -132 0
125 130 132 0
-125 -130 132 0
129 -133 0
-133 -134 0
-129 133 134 0
-129 134 -136 0
129 -134 -136 0
129 134 136 0
-129 -134 136 0
133 -137 0
-137 -138 0
-133 137 138 0
-133 138 -140 0
133 -138 -140 0
133 138 140 0
-133 -138 140 0
137 -141 0
-141 -142 0
-137 141 142 0
-137 142 -144 0
137 -142 -144 0
137 142 144 0
-137 -142 144 0
141 -145 0
-145 -146 0
-141 145 146 0
-141 146 -148 0
141 -146 -148 0
141 146 148 0
-141 -146 148 0
145 -149 0
-149 -150 0
-145 149 150 0
-145 150 -152 0
145 -150 -152 0
145 150 152 0
-145 -150 152 0
130 -153 0
123 -153 0
-123 -130 153 0
-123 -130 -154 0
123 130 -154 0
123 -130 154 0
-123 130 154 0
-126 -134 155 0
-134 -153 155 0
-126 -153 155 0
126 134 -155 0
134 153 -155 0
126 153 -155 0
134 -155 -156 0
126 -155 -156 0
153 -155 -156 0
-134 155 156 0
-126 155 156 0
-153 155 156 0
-126 -134 -153 156 0
126 134 153 -156 0
-130 -138 157 0
-138 -155 157 0
-130 -155 157 0
130 138 -157 0
138 155 -157 0
130 155 -157 0
138 -157 -158 0
130 -157 -158 0
155 -157 -158 0
-138 157 158 0
-130 157 158 0
-155 157 158 0
-130 -138 -155 158 0
130 138 155 -158 0
-134 -142 159 0
-142 -157 159 0
-134 -157 159 0
134 142 -159 0
142 157 -159 0
134 157 -159 0
142 -159 -160 0
134 -159 -160 0
157 -159 -160 0
-142 159 160 0
-134 159 160 0
-157 159 160 0
-134 -142 -157 160 0
134 142 157 -160 0
-138 -146 161 0
-146 -159 161 0
-138 -159 161 0
138 146 -161 0
146 159 -161 0
138 159 -161 0
146 -161 -162 0
138 -161 -162 0
159 -161 -162 0
-146 161 162 0
-138 161 162 0
-159 161 162 0
-138 -146 -159 162 0
138 146 159 -162 0
91 -142 -150 0
91 -150 -161 0
91 -142 -161 0
-91 142 150 0
-91 150 161 0
-91 142 161 0
-83 -91 150 0
-83 -91 142 0
-83 -91 161 0
83 91 -150 0
83 91 -142 0
83 91 -161 0
83 -142 -150 -161 0
-83 142 150 161 0
-71 146 0
-71 91 0
71 -91 -146 0
-66 -91 -146 0
-66 91 146 0
66 91 -146 0
66 -91 146 0
-87 150 0
71 -87 0
-71 87 -150 0
-71 -80 -150 0
71 -80 150 0
71 80 -150 0
-71 80 150 0
-76 156 0
-76 123 0
76 -123 -156 0
-123 -124 -156 0
123 -124 156 0
123 124 -156 0
-123 124 156 0
-126 127 -158 0
-76 127 -158 0
-76 -126 127 0
126 -127 158 0
76 -127 158 0
76 126 -127 0
-127 -131 158 0
126 -127 -131 0
76 -127 -131 0
127 131 -158 0
-126 127 131 0
-76 127 131 0
-76 -126 131 -158 0
76 126 -131 158 0
-130 135 -160 0
-127 135 -160 0
-127 -130 135 0
130 -135 160 0
127 -135 160 0
127 130 -135 0
-135 -139 160 0
130 -135 -139 0
127 -135 -139 0
135 139 -160 0
-130 135 139 0
-127 135 139 0
-127 -130 139 -160 0
127 130 -139 160 0
-134 143 -162 0
-135 143 -162 0
-134 -135 143 0
134 -143 162 0
135 -143 162 0
134 135 -143 0
-143 -147 162 0
134 -143 -147 0
135 -143 -147 0
143 147 -162 0
-134 143 147 0
-135 143 147 0
-134 -135 147 -162 0
134 135 -147 162 0
-83 -138 151 0
-83 -143 151 0
-138 -143 151 0
83 138 -151 0
83 143 -151 0
138 143 -151 0
83 -151 -163 0
138 -151 -163 0
143 -151 -163 0
-83 151 163 0
-138 151 163 0
-143 151 163 0
-83 -138 -143 163 0
83 138 143 -163 0
-66 -142 164 0
-66 -151 164 0
-142 -151 164 0
66 142 -164 0
66 151 -164 0
142 151 -164 0
66 -164 -165 0
142 -164 -165 0
151 -164 -165 0
-66 164 165 0
-142 164 165 0
-151 164 165 0
-66 -142 -151 165 0
66 142 151 -165 0
38 -80 -146 0
38 -80 -164 0
38 -146 -164 0
-38 80 146 0
-38 80 164 0
-38 146 164 0
-37 -38 80 0
-37 -38 146 0
-37 -38 164 0
37 38 -80 0
37 38 -146 0
37 38 -164 0
37 -80 -146 -164 0
-37 80 146 164 0
36 -87 -150 0
36 -38 -87 0
36 -38 -150 0
-36 87 150 0
-36 38 87 0
-36 38 150 0
-35 -36 87 0
-35 -36 150 0
-35 -36 38 0
35 36 -87 0
35 36 -150 0
35 36 -38 0
35 -38 -87 -150 0
-35 38 87 150 0
-34 -123 0
-34 -126 0
34 123 126 0
-33 123 126 0
-33 -123 -126 0
33 -123 126 0
33 123 -126 0
-32 34 0
-32 -154 0
32 -34 154 0
-31 -34 154 0
-31 34 -154 0
31 34 154 0
31 -34 -154 0
-30 32 0
-30 -124 0
30 -32 124 0
-29 -32 124 0
-29 32 -124 0
29 32 124 0
29 -32 -124 0
-28 30 0
-28 -131 0
28 -30 131 0
-27 -30 131 0
-27 30 -131 0
27 30 131 0
27 -30 -131 0
-26 28 0
-26 -139 0
26 -28 139 0
-25 -28 139 0
-25 28 -139 0
25 28 139 0
25 -28 -139 0
-24 26 0
-24 -147 0
24 -26 147 0
-23 -26 147 0
-23 26 -147 0
23 26 147 0
23 -26 -147 0
-22 24 0
-22 -163 0
22 -24 163 0
-21 -24 163 0
-21 24 -163 0
21 24 163 0
21 -24 -163 0
-20 22 0
-20 -165 0
20 -22 165 0
-19 -22 165 0
-19 22 -165 0
19 22 165 0
19 -22 -165 0
-18 20 0
-18 -37 0
18 -20 37 0
-17 -20 37 0
-17 20 -37 0
17 20 37 0
17 -20 -37 0
-16 18 0
-16 -35 0
16 -18 35 0
-15 -18 35 0
-15 18 -35 0
15 18 35 0
15 -18 -35 0
-14 16 0
-14 -36 0
14 -16 36 0
-13 -16 36 0
-13 16 -36 0
13 16 36 0
13 -16 -36 0
-12 90 0
-12 123 0
12 -90 -123 0
-90 -123 0
90 123 0
11 -82 -126 0
11 -12 -82 0
11 -12 -126 0
-11 82 126 0
-11 12 82 0
-11 12 126 0
-11 82 0
-11 126 0
-11 12 0
12 82 126 0
10 -70 -154 0
10 -11 -70 0
10 -11 -154 0
-10 70 154 0
-10 11 70 0
-10 11 154 0
-10 70 0
-10 154 0
-10 11 0
11 70 154 0
9 -97 -124 0
9 -10 -97 0
9 -10 -124 0
-9 97 124 0
-9 10 97 0
-9 10 124 0
9 -97 0
9 -124 0
9 -10 0
-10 -97 -124 0
8 -64 -131 0
8 -9 -64 0
8 -9 -131 0
-8 64 131 0
-8 9 64 0
-8 9 131 0
8 -64 0
8 -131 0
8 -9 0
-9 -64 -131 0
7 -78 -139 0
7 -8 -78 0
7 -8 -139 0
-7 78 139 0
-7 8 78 0
-7 8 139 0
-7 78 0
-7 139 0
-7 8 0
8 78 139 0
6 -57 -147 0
6 -7 -57 0
6 -7 -147 0
-6 57 147 0
-6 7 57 0
-6 7 147 0
-6 57 0
-6 147 0
-6 7 0
7 57 147 0
5 -55 -163 0
5 -6 -55 0
5 -6 -163 0
-5 55 163 0
-5 6 55 0
-5 6 163 0
5 -55 0
5 -163 0
5 -6 0
-6 -55 -163 0
4 -53 -165 0
4 -5 -53 0
4 -5 -165 0
-4 53 165 0
-4 5 53 0
-4 5 165 0
4 -53 0
4 -165 0
4 -5 0
-5 -53 -165 0
3 -37 -51 0
3 -4 -51 0
3 -4 -37 0
-3 37 51 0
-3 4 51 0
-3 4 37 0
3 -51 0
3 -37 0
3 -4 0
-4 -37 -51 0
2 -35 -49 0
2 -3 -49 0
2 -3 -35 0
-2 35 49 0
-2 3 49 0
-2 3 35 0
2 -49 0
2 -35 0
2 -3 0
-3 -35 -49 0
1 -36 -47 0
1 -2 -47 0
1 -2 -36 0
-1 36 47 0
-1 2 47 0
-1 2 36 0
1 -47 0
1 -36 0
1 -2 0
-2 -36 -47 0
-1 -48 0
1 -48 0
-1 48 0
